w = 60;

n = 73;

r2 = array1d(1..2, [34, 6]);

r3 = array1d(1..2, [13, 3]);

r4 = array1d(1..2, [13, 5]);

r5 = array1d(1..2, [10, 12]);

r6 = array1d(1..2, [10, 12]);

r7 = array1d(1..2, [6, 7]);

r8 = array1d(1..2, [6, 15]);

r9 = array1d(1..2, [25, 7]);

r10 = array1d(1..2, [25, 15]);

r11 = array1d(1..2, [21, 12]);

r12 = array1d(1..2, [16, 7]);

r13 = array1d(1..2, [16, 5]);

r14 = array1d(1..2, [21, 3]);

r15 = array1d(1..2, [21, 5]);

r16 = array1d(1..2, [5, 7]);

r17 = array1d(1..2, [5, 5]);

r18 = array1d(1..2, [4, 1]);

r19 = array1d(1..2, [4, 10]);

r20 = array1d(1..2, [6, 13]);

r21 = array1d(1..2, [12, 13]);

r22 = array1d(1..2, [12, 9]);

r23 = array1d(1..2, [23, 6]);

r24 = array1d(1..2, [7, 3]);

r25 = array1d(1..2, [7, 5]);

r26 = array1d(1..2, [2, 1]);

r27 = array1d(1..2, [2, 10]);

r28 = array1d(1..2, [6, 6]);

r29 = array1d(1..2, [6, 5]);

r30 = array1d(1..2, [14, 7]);

r31 = array1d(1..2, [14, 6]);

r32 = array1d(1..2, [16, 3]);

r33 = array1d(1..2, [16, 5]);

r34 = array1d(1..2, [14, 6]);

r35 = array1d(1..2, [14, 5]);

r36 = array1d(1..2, [14, 13]);

r37 = array1d(1..2, [3, 2]);

r38 = array1d(1..2, [3, 7]);

r39 = array1d(1..2, [11, 2]);

r40 = array1d(1..2, [11, 7]);

r41 = array1d(1..2, [6, 7]);

r42 = array1d(1..2, [6, 6]);

r43 = array1d(1..2, [33, 14]);

r44 = array1d(1..2, [12, 4]);

r45 = array1d(1..2, [12, 3]);

r46 = array1d(1..2, [16, 18]);

r47 = array1d(1..2, [12, 3]);

r48 = array1d(1..2, [12, 18]);

r49 = array1d(1..2, [4, 4]);

r50 = array1d(1..2, [4, 3]);

r51 = array1d(1..2, [3, 1]);

r52 = array1d(1..2, [3, 2]);

r53 = array1d(1..2, [6, 9]);

r54 = array1d(1..2, [6, 9]);

r55 = array1d(1..2, [6, 1]);

r56 = array1d(1..2, [6, 2]);

r57 = array1d(1..2, [5, 7]);

r58 = array1d(1..2, [5, 18]);

r59 = array1d(1..2, [3, 9]);

r60 = array1d(1..2, [3, 9]);

r61 = array1d(1..2, [9, 18]);

r62 = array1d(1..2, [6, 5]);

r63 = array1d(1..2, [6, 2]);

r64 = array1d(1..2, [2, 12]);

r65 = array1d(1..2, [2, 9]);

r66 = array1d(1..2, [8, 3]);

r67 = array1d(1..2, [8, 9]);

r68 = array1d(1..2, [10, 9]);

r69 = array1d(1..2, [3, 5]);

r70 = array1d(1..2, [3, 2]);

r71 = array1d(1..2, [3, 18]);

r72 = array1d(1..2, [3, 7]);

r73 = array1d(1..2, [2, 3]);

r74 = array1d(1..2, [2, 9]);

